data;


param d:= 100;
param r:=5;
param p:=0.900000;
param M:=1000;
param U:=
         1         1       -1.268330e+00
         2         1        4.063715e-01
         3         1        5.806435e-01
         4         1       -3.327300e-01
         5         1        1.001346e+00
         6         1        5.133690e-02
         7         1        1.467724e-01
         8         1        1.351271e+00
         9         1        1.529298e-01
        10         1       -2.984476e-01
        11         1        2.445199e-01
        12         1       -1.398056e+00
        13         1       -2.458390e+00
        14         1       -1.446150e+00
        15         1       -4.595648e-02
        16         1       -1.626162e-01
        17         1        4.544466e-01
        18         1        2.006264e-01
        19         1        2.331303e-01
        20         1        7.176551e-01
        21         1        6.863868e-01
        22         1        4.967985e-01
        23         1        1.850032e-01
        24         1       -1.860756e+00
        25         1       -7.009658e-01
        26         1       -2.052592e-01
        27         1        7.216039e-01
        28         1       -8.458385e-01
        29         1       -7.696372e-01
        30         1       -2.038780e+00
        31         1        6.844269e-01
        32         1       -1.395665e-01
        33         1       -6.832322e-01
        34         1        9.344949e-01
        35         1       -8.427633e-01
        36         1       -5.048488e-01
        37         1        8.286203e-01
        38         1        3.930304e-02
        39         1       -4.343770e-03
        40         1        6.657417e-01
        41         1        1.102768e+00
        42         1        3.179324e-01
        43         1       -1.460332e+00
        44         1       -8.646277e-01
        45         1       -4.988739e-02
        46         1       -4.983708e-01
        47         1        1.757667e+00
        48         1        5.725716e-01
        49         1        6.184923e-01
        50         1       -6.936213e-01
        51         1       -2.075088e+00
        52         1        1.439666e+00
        53         1        1.649871e+00
        54         1       -9.337664e-01
        55         1       -8.468417e-01
        56         1       -1.002141e+00
        57         1        8.599305e-01
        58         1        1.721898e+00
        59         1        1.253670e+00
        60         1       -8.655733e-01
        61         1        3.014270e-01
        62         1       -9.843120e-01
        63         1       -1.585270e+00
        64         1       -2.217772e-01
        65         1       -1.060511e-01
        66         1        6.528367e-01
        67         1       -9.540408e-01
        68         1       -3.756685e-01
        69         1        9.865443e-01
        70         1        1.163925e+00
        71         1        1.238139e+00
        72         1       -8.608853e-01
        73         1        1.391279e+00
        74         1        1.121232e+00
        75         1        1.913414e-01
        76         1       -2.381540e-01
        77         1       -3.512114e-01
        78         1       -1.139540e+00
        79         1        9.133488e-01
        80         1        1.176475e+00
        81         1       -3.852826e-01
        82         1       -6.328115e-01
        83         1        8.883692e-01
        84         1        2.661531e+00
        85         1        7.141912e-01
        86         1       -6.645197e-01
        87         1        7.693011e-02
        88         1        9.150705e-01
        89         1       -4.988938e-01
        90         1        4.553076e-01
        91         1        4.231353e-02
        92         1       -1.573828e+00
        93         1       -5.414070e-01
        94         1       -7.569817e-01
        95         1       -1.497527e-01
        96         1       -1.114520e+00
        97         1       -1.127579e+00
        98         1       -8.923569e-01
        99         1       -2.266848e+00
       100         1       -3.484720e-01
         1         2       -4.712696e-01
         2         2        8.581429e-01
         3         2        9.975087e-01
         4         2       -8.897845e-01
         5         2       -1.306206e-01
         6         2       -1.339451e+00
         7         2        8.421077e-01
         8         2       -6.129028e-03
         9         2        1.116485e+00
        10         2        1.971497e-01
        11         2        9.095563e-01
        12         2       -3.846751e-01
        13         2        1.215703e+00
        14         2       -9.701090e-01
        15         2       -1.417547e-01
        16         2        9.018001e-01
        17         2        3.201151e-01
        18         2       -2.270678e+00
        19         2        1.131626e-01
        20         2        2.922480e-01
        21         2       -8.629927e-01
        22         2        1.790829e+00
        23         2       -2.036318e+00
        24         2        6.950073e-01
        25         2        3.204087e-02
        26         2        8.170028e-01
        27         2        5.989523e-02
        28         2        1.252746e+00
        29         2        2.275773e+00
        30         2        2.340979e-01
        31         2       -6.081598e-01
        32         2        1.438936e+00
        33         2        9.060038e-01
        34         2        1.866918e+00
        35         2        2.670304e-01
        36         2       -1.412743e+00
        37         2       -5.679516e-01
        38         2       -1.289108e+00
        39         2       -1.539312e+00
        40         2        7.996415e-01
        41         2        1.365424e-01
        42         2       -1.477853e+00
        43         2       -1.304255e+00
        44         2        6.759116e-01
        45         2       -7.640270e-01
        46         2        4.951757e-01
        47         2        1.095861e-03
        48         2       -1.871506e-01
        49         2        8.866721e-01
        50         2       -6.396705e-01
        51         2       -4.862824e-01
        52         2        1.007576e+00
        53         2        3.367303e-01
        54         2       -3.955315e-02
        55         2       -1.744318e-01
        56         2       -1.707963e+00
        57         2        9.799779e-01
        58         2        3.324444e-01
        59         2       -3.763717e-01
        60         2        3.543857e-01
        61         2        6.269560e-01
        62         2        2.528841e+00
        63         2        1.249926e+00
        64         2        2.071186e+00
        65         2       -1.688443e+00
        66         2       -1.385577e+00
        67         2       -6.948804e-01
        68         2       -1.784148e-01
        69         2       -1.741830e+00
        70         2       -4.533430e-01
        71         2        1.079427e-01
        72         2       -5.377946e-01
        73         2       -2.963269e+00
        74         2       -6.921074e-01
        75         2        6.572585e-01
        76         2       -1.099104e+00
        77         2        9.008928e-01
        78         2       -6.036593e-01
        79         2       -9.549947e-01
        80         2        6.110285e-01
        81         2        2.227019e+00
        82         2        2.371143e-01
        83         2       -1.448806e+00
        84         2       -4.792042e-01
        85         2       -1.449772e+00
        86         2       -1.683171e+00
        87         2        6.697530e-01
        88         2        1.874738e-01
        89         2        1.285191e+00
        90         2       -4.091968e-01
        91         2        1.181044e+00
        92         2        9.104084e-01
        93         2        1.124065e+00
        94         2       -9.779146e-01
        95         2       -1.024953e+00
        96         2       -5.754519e-01
        97         2       -1.934970e-01
        98         2       -1.031633e+00
        99         2       -1.340613e+00
       100         2       -2.691784e-01
         1         3       -9.840365e-01
         2         3       -6.514350e-01
         3         3       -4.790711e-01
         4         3        8.717283e-01
         5         3        3.730861e-01
         6         3        2.129385e-01
         7         3        1.107625e+00
         8         3        3.601629e-01
         9         3       -7.426354e-01
        10         3       -9.687591e-02
        11         3       -1.776315e+00
        12         3       -1.276496e-01
        13         3        1.251954e+00
        14         3       -4.706981e-01
        15         3        6.322857e-01
        16         3        5.464643e-01
        17         3        4.485062e-01
        18         3        7.712293e-01
        19         3       -8.725731e-01
        20         3        6.186596e-02
        21         3        1.754235e+00
        22         3       -6.892655e-01
        23         3       -5.019472e-01
        24         3       -1.372591e+00
        25         3        7.278688e-01
        26         3        6.662171e-01
        27         3        2.170721e+00
        28         3        1.841136e-01
        29         3        1.656878e+00
        30         3        8.679200e-01
        31         3       -9.035775e-01
        32         3        1.328623e+00
        33         3       -1.173537e+00
        34         3        5.372784e-01
        35         3       -2.971555e-01
        36         3       -2.071753e+00
        37         3        8.242830e-01
        38         3        3.530566e+00
        39         3       -2.385373e-01
        40         3       -1.228603e+00
        41         3        3.444105e-01
        42         3       -2.280046e-01
        43         3        5.335007e-02
        44         3        6.963242e-01
        45         3        1.717679e+00
        46         3        1.043498e+00
        47         3       -1.435321e+00
        48         3        3.584936e-01
        49         3        1.081395e+00
        50         3        1.193167e+00
        51         3       -5.824696e-01
        52         3        1.715583e+00
        53         3       -4.494766e-01
        54         3        6.217784e-02
        55         3        8.509630e-01
        56         3       -3.132780e-01
        57         3       -9.074040e-01
        58         3        1.073318e+00
        59         3        1.051891e+00
        60         3        8.125362e-01
        61         3        5.528510e-01
        62         3        4.294074e-01
        63         3        5.242164e-02
        64         3       -7.229077e-01
        65         3        3.708052e-01
        66         3        7.206734e-01
        67         3        9.236250e-01
        68         3       -3.342063e-01
        69         3       -8.062481e-01
        70         3       -1.262543e+00
        71         3        1.358748e+00
        72         3        2.634534e-01
        73         3       -3.061043e-03
        74         3       -1.295317e+00
        75         3        3.126257e-01
        76         3       -6.544150e-02
        77         3        1.375002e+00
        78         3       -4.360964e-01
        79         3        4.814626e-01
        80         3        5.613882e-01
        81         3       -4.556306e-01
        82         3       -4.021869e-01
        83         3       -1.089895e-01
        84         3       -1.848807e+00
        85         3        1.777648e+00
        86         3       -1.022748e+00
        87         3        1.596595e+00
        88         3        1.990548e+00
        89         3        2.672943e-01
        90         3       -1.262983e+00
        91         3       -2.967113e-02
        92         3       -1.154256e+00
        93         3        2.180942e-01
        94         3        1.842515e-01
        95         3        3.002697e-02
        96         3        2.380204e+00
        97         3        1.207146e+00
        98         3       -9.513763e-02
        99         3        8.622174e-01
       100         3        9.251855e-01
         1         4        9.046711e-01
         2         4       -1.177092e+00
         3         4        7.835519e-01
         4         4        1.481519e+00
         5         4       -7.222784e-02
         6         4       -3.565251e-01
         7         4        6.027172e-01
         8         4       -6.971427e-01
         9         4        1.169938e-01
        10         4        2.760041e-01
        11         4       -7.164255e-01
        12         4        6.695300e-01
        13         4        6.090305e-01
        14         4       -1.355108e+00
        15         4       -9.611992e-01
        16         4       -1.566932e-01
        17         4       -3.129686e-01
        18         4        1.229558e+00
        19         4       -1.942092e-01
        20         4        2.136045e-01
        21         4        4.103841e-01
        22         4        5.946185e-01
        23         4        1.337744e+00
        24         4        1.439984e+00
        25         4        3.381639e-01
        26         4       -1.457429e+00
        27         4        7.731207e-01
        28         4        1.517957e-01
        29         4       -1.446119e+00
        30         4        4.257786e-01
        31         4        1.417312e+00
        32         4       -1.910018e+00
        33         4       -9.877602e-02
        34         4       -5.034037e-01
        35         4       -1.494403e+00
        36         4       -2.465429e-01
        37         4        3.816024e-01
        38         4       -8.775748e-01
        39         4       -2.333715e-01
        40         4        2.067464e-01
        41         4       -7.455974e-03
        42         4       -7.524588e-01
        43         4        1.057729e+00
        44         4       -1.332979e+00
        45         4        1.276725e+00
        46         4       -1.330859e+00
        47         4       -3.626745e-01
        48         4        4.047892e-01
        49         4       -1.209307e+00
        50         4       -7.887774e-01
        51         4        4.321987e-01
        52         4       -1.907604e+00
        53         4        4.986364e-01
        54         4       -1.324313e+00
        55         4       -1.138004e-01
        56         4        3.459892e-01
        57         4        3.678933e-01
        58         4       -6.080141e-01
        59         4        4.429409e-02
        60         4        7.772004e-01
        61         4        1.927525e+00
        62         4       -6.872746e-01
        63         4       -2.804560e-01
        64         4       -9.178987e-01
        65         4        4.314026e-02
        66         4        5.540977e-01
        67         4        1.198613e+00
        68         4        4.072443e-01
        69         4       -5.305766e-01
        70         4        5.545456e-01
        71         4        7.878210e-01
        72         4        2.367852e-01
        73         4        1.850402e+00
        74         4       -1.265261e+00
        75         4        8.751451e-01
        76         4        5.621542e-01
        77         4        5.373134e-01
        78         4       -7.353846e-01
        79         4       -2.327735e-01
        80         4        6.682929e-01
        81         4        3.702311e-01
        82         4       -1.344045e+00
        83         4       -1.479801e+00
        84         4        8.151069e-01
        85         4        8.860051e-02
        86         4       -5.176961e-01
        87         4       -1.244745e-01
        88         4        1.830089e+00
        89         4       -1.157500e+00
        90         4        1.184545e+00
        91         4        1.621596e+00
        92         4       -6.129040e-01
        93         4       -3.661128e-01
        94         4        3.263151e-01
        95         4        1.198262e+00
        96         4        9.304128e-01
        97         4       -1.892874e-01
        98         4        1.909609e+00
        99         4       -2.113389e-01
       100         4       -5.188949e-01
         1         5       -3.537161e-01
         2         5       -4.181626e-01
         3         5       -1.767785e-01
         4         5        7.704113e-01
         5         5       -5.647117e-01
         6         5        5.218119e-02
         7         5        3.640195e+00
         8         5        7.250540e-02
         9         5       -1.315782e+00
        10         5        9.050122e-01
        11         5        2.893045e-01
        12         5        3.348951e-02
        13         5        6.078749e-01
        14         5       -4.796721e-01
        15         5        5.251837e-01
        16         5       -5.756016e-01
        17         5        2.959387e-01
        18         5       -2.057440e-01
        19         5        7.189627e-01
        20         5        1.208065e-01
        21         5        2.130392e-01
        22         5       -2.899986e-02
        23         5       -5.960240e-01
        24         5       -1.165150e+00
        25         5        8.076276e-01
        26         5        2.808542e-01
        27         5       -1.914038e+00
        28         5        6.454288e-01
        29         5       -1.275158e+00
        30         5       -5.312003e-01
        31         5        6.058059e-01
        32         5       -3.234963e-02
        33         5        3.492611e-01
        34         5        1.539149e+00
        35         5        5.327071e-01
        36         5       -5.376543e-01
        37         5        5.270123e-02
        38         5        6.085548e-01
        39         5       -2.551052e-01
        40         5       -4.276735e-01
        41         5       -1.682448e-01
        42         5       -7.535940e-01
        43         5        2.407369e-01
        44         5        5.230288e-01
        45         5       -5.611434e-01
        46         5       -1.962433e+00
        47         5       -1.670573e-01
        48         5       -2.066032e+00
        49         5       -8.158048e-01
        50         5        1.367200e+00
        51         5       -4.365692e-01
        52         5       -1.144312e+00
        53         5       -4.221028e-01
        54         5        2.205387e+00
        55         5       -1.334992e+00
        56         5       -8.903239e-02
        57         5        3.439038e-01
        58         5        9.219943e-01
        59         5       -1.769144e+00
        60         5        1.173421e+00
        61         5        1.457465e+00
        62         5        1.465232e-01
        63         5        5.068698e-01
        64         5        5.838781e-01
        65         5        1.513600e+00
        66         5       -1.576848e+00
        67         5       -1.258853e+00
        68         5        4.949007e-01
        69         5       -9.438688e-01
        70         5       -4.692297e-01
        71         5        4.214997e-01
        72         5        6.683827e-01
        73         5       -1.470664e+00
        74         5       -1.043490e+00
        75         5       -1.783130e-02
        76         5        1.009762e+00
        77         5        1.213284e+00
        78         5        4.339810e-01
        79         5       -9.761546e-01
        80         5       -1.476218e+00
        81         5       -1.787863e-01
        82         5        1.331239e+00
        83         5        9.927983e-01
        84         5        2.123465e-01
        85         5        1.782166e+00
        86         5       -1.429633e+00
        87         5        4.664438e-01
        88         5       -2.849773e-01
        89         5        4.100883e-01
        90         5        8.067263e-02
        91         5       -5.066010e-01
        92         5        1.333434e+00
        93         5       -2.070479e+00
        94         5        2.465809e-01
        95         5        1.584057e+00
        96         5        1.317895e-02
        97         5        3.968537e-01
        98         5       -6.587040e-01
        99         5       -4.742976e-01
       100         5       -1.333502e+00
;

param theta:=
    1       -6.910014e-01
    2       -1.186175e+00
    3       -5.485939e-01
    4        7.588700e-01
    5       -1.481901e-01
;
param X_true:=
    1        2.826719e+00
    2       -1.815224e+00
    3       -6.059609e-01
    4        1.757900e+00
    5       -7.244659e-01
    6        1.199961e+00
    7       -1.744302e+00
    8       -1.514606e+00
    9       -7.906274e-01
   10       -2.882549e-03
   11       -1.020587e+00
   12        1.911235e+00
   13       -1.252764e-01
   14        1.501661e+00
   15       -8.022428e-01
   16       -1.405319e+00
   17       -1.249286e+00
   18        3.094108e+00
   19       -1.669348e-01
   20       -7.343372e-01
   21       -2.422118e-01
   22       -1.473492e+00
   23        3.599345e+00
   24        2.275646e+00
   25        1.505732e-01
   26       -2.506995e+00
   27       -9.353493e-01
   28       -6.425426e-01
   29       -4.018388e+00
   30        9.750233e-01
   31        1.870696e+00
   32       -3.775273e+00
   33       -1.297948e-01
   34       -3.859117e+00
   35       -7.993517e-01
   36        3.036171e+00
   37       -1.851678e-01
   38       -1.080490e+00
   39        1.672145e+00
   40       -3.686264e-01
   41       -1.211380e+00
   42        1.130760e+00
   43        3.170494e+00
   44       -1.698691e+00
   45        1.038325e+00
   46       -1.634190e+00
   47       -7.589911e-01
   48        2.591216e-01
   49       -2.876983e+00
   50       -2.962900e-01
   51        2.623335e+00
   52       -4.374181e+00
   53       -8.504754e-01
   54       -5.646023e-01
   55        6.088361e-01
   56        3.053263e+00
   57       -1.006356e+00
   58       -2.732921e+00
   59       -5.923989e-01
   60        1.922479e-01
   61       -3.213794e-02
   62       -3.032461e+00
   63       -6.925397e-01
   64       -2.745882e+00
   65        1.678957e+00
   66        1.494772e+00
   67        2.106655e+00
   68        9.060146e-01
   69        1.558911e+00
   70        9.015633e-01
   71       -1.226087e+00
   72        1.137298e+00
   73        4.446948e+00
   74       -1.719812e-01
   75       -3.678601e-01
   76        1.897268e+00
   77       -1.090256e+00
   78        1.033060e+00
   79        1.424879e-01
   80       -1.060461e+00
   81       -1.672050e+00
   82       -8.728440e-01
   83       -1.384172e-01
   84        2.374925e-01
   85        4.238475e-02
   86        2.835717e+00
   87       -1.916981e+00
   88       -4.641774e-01
   89       -2.366606e+00
   90        1.699187e+00
   91        1.352164e-02
   92       -1.041540e-01
   93       -9.876430e-01
   94        1.936855e+00
   95        1.900037e+00
   96        8.757286e-01
   97        1.858829e-01
   98        3.331894e+00
   99        2.382341e+00
  100       -4.176293e-02
;
param X:=
    1       -1.022650e+00
    2       -1.815224e+00
    3       -1.305356e-01
    4       -2.044853e-01
    5       -8.499917e-01
    6        1.005109e+00
    7       -5.483424e-01
    8       -7.131802e-01
    9       -6.829592e-01
   10        3.620995e-01
   11        7.623555e-01
   12        3.158872e-01
   13        6.618864e-02
   14        1.501661e+00
   15        1.217119e+00
   16        1.199104e+00
   17        6.183169e-01
   18        2.326794e-01
   19        6.528503e-01
   20       -5.984375e-02
   21       -2.422118e-01
   22        7.239211e-01
   23        4.492839e-01
   24        9.544313e-01
   25        1.526533e+00
   26        7.680756e-01
   27       -4.938465e-03
   28        1.308908e+00
   29       -9.453322e-01
   30        1.825770e-01
   31        1.330380e+00
   32       -1.632559e+00
   33       -1.297948e-01
   34       -1.064962e+00
   35       -6.257829e-01
   36        2.333854e-02
   37       -2.978762e-01
   38       -8.845611e-01
   39       -2.660965e+00
   40        8.508482e-01
   41       -1.211380e+00
   42        1.708563e+00
   43       -1.645066e+00
   44        4.668194e-01
   45       -1.160523e+00
   46        2.196812e+00
   47       -3.368232e-01
   48       -1.357662e+00
   49       -3.478398e+00
   50       -8.333820e-01
   51        6.825795e-01
   52        9.805058e-01
   53       -4.074343e-01
   54        7.306718e-01
   55        1.391578e+00
   56       -2.852647e+00
   57       -1.822282e+00
   58       -1.504460e+00
   59       -1.750603e+00
   60       -2.066605e+00
   61       -5.609984e-01
   62        5.124208e-01
   63        1.293696e-01
   64       -1.144463e+00
   65        1.678957e+00
   66        3.814468e-01
   67       -6.175730e-01
   68       -7.074945e-01
   69       -4.472181e-01
   70       -2.021958e+00
   71        8.447133e-01
   72        9.622574e-01
   73        6.210454e-01
   74       -1.719812e-01
   75       -1.154841e+00
   76        4.241212e-01
   77       -2.454832e-01
   78        1.033060e+00
   79        2.277000e-01
   80       -1.605099e+00
   81        4.236708e-01
   82        2.133413e+00
   83       -1.046587e-01
   84       -1.041969e+00
   85       -1.786130e+00
   86        1.052314e+00
   87       -1.916981e+00
   88        8.727778e-01
   89        1.328789e+00
   90        3.380469e-01
   91       -1.920667e+00
   92        8.257427e-01
   93        5.850747e-01
   94        1.936855e+00
   95       -7.393162e-02
   96       -1.339587e-01
   97        7.456889e-01
   98       -1.638357e+00
   99       -4.922163e-01
  100       -2.854043e-01
;
param outliervec:=
    1    1
    2    0
    3    1
    4    1
    5    1
    6    1
    7    1
    8    1
    9    1
   10    1
   11    1
   12    1
   13    1
   14    0
   15    1
   16    1
   17    1
   18    1
   19    1
   20    1
   21    0
   22    1
   23    1
   24    1
   25    1
   26    1
   27    1
   28    1
   29    1
   30    1
   31    1
   32    1
   33    0
   34    1
   35    1
   36    1
   37    1
   38    1
   39    1
   40    1
   41    0
   42    1
   43    1
   44    1
   45    1
   46    1
   47    1
   48    1
   49    1
   50    1
   51    1
   52    1
   53    1
   54    1
   55    1
   56    1
   57    1
   58    1
   59    1
   60    1
   61    1
   62    1
   63    1
   64    1
   65    0
   66    1
   67    1
   68    1
   69    1
   70    1
   71    1
   72    1
   73    1
   74    0
   75    1
   76    1
   77    1
   78    0
   79    1
   80    1
   81    1
   82    1
   83    1
   84    1
   85    1
   86    1
   87    0
   88    1
   89    1
   90    1
   91    1
   92    1
   93    1
   94    0
   95    1
   96    1
   97    1
   98    1
   99    1
  100    1
;